; benchmark generated from python API
(set-info :status unknown)
(declare-datatypes ((RealState 0)) (((RMk1 (rval1 Real)) (RMk2 (rval2 Real)))))
 (assert
 (forall ((|v11:0| Real) )(exists ((|v10:1_st| RealState) (val!2682 Real) )(forall ((|v9:2| Real) )(exists ((|v8:3_st| RealState) (val!2683 Real) )(forall ((|v7:4| Real) )(exists ((|v6:5_st| RealState) (val!2684 Real) )(forall ((|v5:6| Real) )(exists ((|v4:7_st| RealState) (val!2685 Real) )(forall ((|v3:8| Real) )(exists ((|v2:9_st| RealState) (val!2686 Real) )(forall ((|v1:10| Real) )(exists ((|v0:11_st| RealState) (val!2687 Real) )(let ((?x2905 (- 15.0)))
 (let ((?x991 (- 13.0)))
 (let ((?x2949 (* ?x991 |v1:10|)))
 (let ((?x1912 (+ (+ (+ (* (- 5.0) (rval2 |v4:7_st|)) (* 10.0 (rval2 |v2:9_st|))) ?x2949) (* ?x2905 |v11:0|))))
 (let ((?x1404 (- 2.0)))
 (let ((?x1152 (rval2 |v10:1_st|)))
 (let ((?x2672 (- 1.0)))
 (let ((?x2742 (* ?x2672 ?x1152)))
 (let ((?x2157 (+ (+ (* (- 19.0) (rval2 |v0:11_st|)) (* 3.0 |v3:8|)) (* (- 19.0) ?x1152))))
 (let ((?x2766 (- 10.0)))
 (let ((?x2731 (* ?x2766 |v7:4|)))
 (let ((?x3112 (+ (+ (+ (* (- 14.0) |v11:0|) (* 9.0 |v9:2|)) (* 11.0 (rval2 |v8:3_st|))) ?x2731)))
 (let ((?x2205 (- 6.0)))
 (let ((?x1046 (+ (+ (+ (* (- 3.0) |v9:2|) (* 19.0 |v3:8|)) (* 20.0 (rval2 |v8:3_st|))) (* (- 20.0) |v7:4|))))
 (let (($x1674 (and (and (or (<= ?x1046 ?x2205) (<= ?x3112 11.0)) (<= (+ ?x2157 ?x2742) ?x1404)) (<= ?x1912 ?x2905))))
 (let ((?x1256 (+ (+ (+ (* 18.0 |v9:2|) (* ?x2905 |v7:4|)) (* 4.0 (rval2 |v0:11_st|))) (* (- 16.0) (rval2 |v8:3_st|)))))
 (let ((?x1845 (- 14.0)))
 (let ((?x1605 (+ (+ (* 6.0 |v11:0|) (* (- 20.0) (rval2 |v4:7_st|))) (* (- 5.0) |v11:0|))))
 (let ((?x271 (- 20.0)))
 (let ((?x953 (rval2 |v4:7_st|)))
 (let ((?x262 (* 19.0 ?x953)))
 (let (($x1192 (<= (+ (+ (+ ?x2731 (* (- 16.0) |v1:10|)) (* 12.0 |v7:4|)) ?x262) ?x271)))
 (let ((?x347 (- 7.0)))
 (let ((?x2356 (rval2 |v2:9_st|)))
 (let ((?x381 (* 8.0 ?x2356)))
 (let (($x722 (and (<= (+ (+ (+ (* ?x2672 |v3:8|) (* (- 18.0) ?x2356)) ?x381) ?x2731) ?x347) $x1192)))
 (let ((?x1153 (+ (+ (+ (rval2 |v8:3_st|) (* 5.0 (rval2 |v0:11_st|))) (* (- 19.0) |v7:4|)) (* (- 16.0) |v3:8|))))
 (let ((?x3158 (* 8.0 |v9:2|)))
 (let (($x1475 (<= (+ (+ (+ (* 10.0 |v3:8|) (* ?x1845 |v1:10|)) (* (- 5.0) ?x2356)) ?x3158) 17.0)))
 (let ((?x2150 (+ (+ (+ (* 16.0 ?x2356) (* ?x1404 (rval2 |v6:5_st|))) (* (- 18.0) |v7:4|)) ?x2949)))
 (let ((?x1555 (- 16.0)))
 (let ((?x888 (* 16.0 ?x1152)))
 (let ((?x462 (+ (+ (+ (* 10.0 (rval2 |v0:11_st|)) (* 15.0 |v7:4|)) (* ?x1845 ?x953)) ?x888)))
 (let (($x1272 (or (or (and (<= ?x462 ?x1555) (<= ?x2150 ?x2672)) (or $x1475 (<= ?x1153 ?x1845))) (and $x722 (or (<= (+ ?x1605 (* 0.0 |v5:6|)) ?x1845) (<= ?x1256 4.0))))))
 (let ((?x2848 (- 8.0)))
 (let ((?x794 (* ?x2848 ?x1152)))
 (let (($x2381 (<= (+ (+ (+ (* 12.0 |v9:2|) (* 7.0 ?x1152)) (* ?x2905 ?x2356)) ?x794) 4.0)))
 (let ((?x710 (- 11.0)))
 (let ((?x1452 (* 12.0 ?x2356)))
 (let (($x1387 (<= (+ (+ (+ (* 4.0 ?x1152) (* 4.0 |v1:10|)) (* ?x2672 |v1:10|)) ?x1452) ?x710)))
 (let ((?x1293 (+ (+ (+ (* (- 3.0) |v3:8|) (* (- 9.0) |v3:8|)) (* ?x347 |v1:10|)) (* 14.0 |v9:2|))))
 (let ((?x2383 (* 14.0 |v5:6|)))
 (let ((?x1656 (+ (+ (+ (* 20.0 |v11:0|) (* 2.0 |v1:10|)) (* (- 5.0) ?x2356)) ?x2383)))
 (let (($x1468 (<= (+ (+ (+ (* ?x2848 ?x953) ?x1452) (* ?x271 ?x2356)) (* ?x1845 (rval2 |v0:11_st|))) 8.0)))
 (let ((?x1784 (- 3.0)))
 (let ((?x2971 (* ?x1784 |v1:10|)))
 (let ((?x862 (+ (+ (+ (* 0.0 ?x2356) (* 15.0 |v1:10|)) (* (- 17.0) |v1:10|)) ?x2971)))
 (let ((?x2509 (rval2 |v6:5_st|)))
 (let ((?x2610 (* 14.0 ?x2509)))
 (let ((?x569 (* 0.0 |v1:10|)))
 (let ((?x3105 (+ (+ (+ (* ?x2205 (rval2 |v8:3_st|)) (* ?x710 |v5:6|)) (* (- 9.0) |v5:6|)) ?x569)))
 (let (($x1107 (and (<= ?x3105 1.0) (<= (+ (+ (+ ?x262 (* 8.0 ?x953)) (* 4.0 ?x1152)) ?x2610) 3.0))))
 (let (($x1411 (and (or $x1107 (and (<= ?x862 6.0) $x1468)) (or (and (<= ?x1656 ?x2766) (<= ?x1293 ?x2766)) (or $x1387 $x2381)))))
 (let ((?x484 (- 4.0)))
 (let ((?x3161 (+ (+ (+ (* (- 17.0) ?x2509) (* (- 17.0) |v11:0|)) (* ?x991 ?x1152)) (* 0.0 ?x953))))
 (let ((?x825 (* ?x347 |v1:10|)))
 (let (($x2256 (<= (+ (+ (+ (* ?x1555 |v1:10|) (* 17.0 ?x1152)) (* 15.0 |v7:4|)) ?x825) 11.0)))
 (let ((?x254 (+ (+ (+ (* 4.0 (rval2 |v8:3_st|)) ?x2610) (* 12.0 |v7:4|)) (* (- 12.0) |v1:10|))))
 (let ((?x745 (* 20.0 |v11:0|)))
 (let ((?x1749 (+ (+ (+ (* ?x1845 (rval2 |v8:3_st|)) (* ?x2848 |v9:2|)) (* 8.0 |v5:6|)) ?x745)))
 (let ((?x908 (- 17.0)))
 (let ((?x2590 (* ?x908 |v1:10|)))
 (let (($x1222 (<= (+ (+ (+ (* 5.0 |v7:4|) (* ?x710 |v3:8|)) (* 9.0 ?x1152)) ?x2590) 19.0)))
 (let ((?x1985 (rval2 |v0:11_st|)))
 (let ((?x1029 (* 12.0 ?x1985)))
 (let ((?x1826 (+ (+ (* (- 19.0) (rval2 |v8:3_st|)) (* 2.0 (rval2 |v8:3_st|))) (* ?x710 ?x2356))))
 (let (($x1037 (or (or (<= (+ ?x1826 ?x1029) 9.0) (or $x1222 (<= ?x1749 19.0))) (or (<= ?x254 16.0) (and $x2256 (<= ?x3161 ?x484))))))
 (let ((?x684 (+ (+ (+ (* 6.0 (rval2 |v8:3_st|)) (* (- 9.0) ?x1985)) (* 16.0 ?x953)) (* ?x710 |v7:4|))))
 (let (($x998 (<= (+ (+ (+ ?x2971 (* ?x710 ?x1985)) (* ?x710 |v5:6|)) (* ?x2205 |v5:6|)) ?x710)))
 (let ((?x337 (+ (+ (+ (* ?x2848 |v7:4|) (* (- 9.0) ?x1152)) (* ?x1784 ?x1985)) (* ?x1784 |v11:0|))))
 (let ((?x2975 (- 19.0)))
 (let ((?x1444 (+ (+ (+ (* ?x484 |v7:4|) (* ?x347 |v9:2|)) (* 18.0 ?x1985)) (* 12.0 |v11:0|))))
 (let (($x2301 (and (or (<= ?x1444 ?x2975) (<= ?x337 ?x347)) (and $x998 (<= ?x684 12.0)))))
 (let ((?x2705 (+ (+ (+ (* 5.0 |v1:10|) (* 12.0 ?x2509)) (* ?x991 ?x2356)) (* ?x1784 ?x1152))))
 (let ((?x191 (+ (+ (+ (* 2.0 ?x2356) (* (- 9.0) |v1:10|)) (* ?x2975 ?x1985)) (* ?x2766 ?x2356))))
 (let (($x414 (<= (+ (+ (+ ?x2731 (* 3.0 ?x1985)) (* 3.0 |v1:10|)) (* ?x991 ?x1152)) 11.0)))
 (let ((?x711 (+ (+ (+ (* ?x2766 (rval2 |v8:3_st|)) (* ?x2672 |v3:8|)) ?x2731) (* 17.0 ?x1985))))
 (let ((?x1640 (+ (+ (+ (* 7.0 ?x1152) (* ?x2905 ?x2356)) (* ?x908 |v5:6|)) (* 3.0 |v5:6|))))
 (let ((?x793 (* 6.0 ?x1152)))
 (let ((?x2239 (+ (+ (+ (* 6.0 ?x2356) (* 7.0 |v5:6|)) (* 7.0 (rval2 |v8:3_st|))) ?x793)))
 (let ((?x1265 (- 5.0)))
 (let (($x2108 (<= (+ (+ (+ (* 18.0 ?x953) (* 20.0 |v3:8|)) (* 17.0 ?x1152)) ?x2742) ?x1265)))
 (let (($x2637 (and (and $x2108 (<= ?x2239 1.0)) (and (<= ?x1640 14.0) (<= ?x711 ?x1555)))))
 (let ((?x1537 (+ (+ (+ (* 19.0 |v7:4|) (* ?x484 |v5:6|)) (* 15.0 (rval2 |v8:3_st|))) (* ?x1265 |v9:2|))))
 (let (($x1791 (or (and (<= ?x1537 4.0) $x2637) (and (and (and $x414 (<= ?x191 ?x2766)) (<= ?x2705 2.0)) $x2301))))
 (let ((?x2686 (- 18.0)))
 (let ((?x1030 (* ?x2686 ?x2356)))
 (let (($x931 (<= (+ (+ (+ (* 18.0 |v11:0|) (* 9.0 ?x953)) (* 12.0 ?x2509)) ?x1030) ?x908)))
 (let ((?x1511 (+ (+ (+ (* (- 12.0) |v11:0|) (* 14.0 |v3:8|)) (* 8.0 |v3:8|)) ?x1029)))
 (let (($x1701 (<= (+ (+ (+ (* 15.0 |v5:6|) (* ?x347 |v7:4|)) ?x2742) (* ?x1555 ?x953)) 14.0)))
 (let ((?x2498 (+ (+ (+ (* ?x1555 |v9:2|) (* 10.0 |v7:4|)) (* 17.0 (rval2 |v8:3_st|))) (* ?x2686 ?x1152))))
 (let ((?x1112 (+ (+ (+ (* ?x2905 ?x953) (* ?x908 |v9:2|)) (* 20.0 |v7:4|)) (* ?x2848 |v11:0|))))
 (let ((?x952 (* ?x1555 |v1:10|)))
 (let (($x1249 (<= (+ (+ (+ (* ?x1404 |v7:4|) (* 15.0 |v11:0|)) (* 4.0 |v5:6|)) ?x952) 2.0)))
 (let ((?x2473 (+ (+ (+ (* ?x2905 (rval2 |v8:3_st|)) (* 17.0 |v11:0|)) (* 18.0 |v7:4|)) (* ?x484 ?x1985))))
 (let (($x878 (<= (+ (+ (+ (* ?x2686 ?x953) (* 19.0 ?x1152)) ?x794) (* 12.0 |v5:6|)) ?x1784)))
 (let (($x1769 (or (or (or $x878 (<= ?x2473 18.0)) (and $x1249 (<= ?x1112 ?x2848))) (and (or (<= ?x2498 ?x2905) $x1701) (or (<= ?x1511 0.0) $x931)))))
 (let ((?x575 (+ (+ (+ (* 19.0 ?x2509) (* 8.0 ?x1985)) (* ?x908 (rval2 |v8:3_st|))) (* ?x2975 |v3:8|))))
 (let ((?x2908 (+ (+ (+ (* 6.0 |v9:2|) (* ?x1555 ?x953)) (* ?x1845 |v5:6|)) (* ?x347 |v3:8|))))
 (let ((?x206 (+ (+ (+ (* 4.0 ?x2509) (* 11.0 |v3:8|)) (* ?x2848 |v7:4|)) (* ?x991 |v11:0|))))
 (let (($x1316 (or (<= ?x206 2.0) (<= (+ (+ (+ ?x1030 (* 17.0 |v3:8|)) ?x262) (* ?x1404 ?x1152)) ?x2905))))
 (let ((?x172 (+ (+ (+ (* 7.0 |v11:0|) (* ?x2672 |v7:4|)) (* 20.0 |v5:6|)) (* (- 12.0) ?x1985))))
 (let ((?x233 (+ (+ (+ (* 10.0 (rval2 |v8:3_st|)) (* ?x347 ?x2509)) (* 11.0 ?x1152)) ?x745)))
 (let ((?x1274 (+ (+ (+ (* 7.0 |v1:10|) ?x2949) (* ?x908 (rval2 |v8:3_st|))) (* 3.0 ?x2356))))
 (let ((?x298 (+ (+ (+ (* ?x2975 |v11:0|) (* 2.0 |v5:6|)) (* 16.0 ?x953)) (* ?x991 ?x953))))
 (let (($x2507 (and (and (<= ?x298 ?x2686) (<= ?x1274 9.0)) (and (<= ?x233 ?x271) (<= ?x172 4.0)))))
 (let (($x2121 (and (or (and $x2507 (or $x1316 (or (<= ?x2908 ?x710) (<= ?x575 5.0)))) $x1769) $x1791)))
 (let (($x1423 (not (= |v0:11_st| (RMk1 val!2687)))))
 (let (($x937 (not (= |v2:9_st| (RMk1 val!2686)))))
 (let (($x1277 (not (= |v4:7_st| (RMk1 val!2685)))))
 (let (($x1151 (not (= |v6:5_st| (RMk1 val!2684)))))
 (let (($x1011 (not (= |v8:3_st| (RMk1 val!2683)))))
 (let (($x439 (not (= |v10:1_st| (RMk1 val!2682)))))
 (and $x439 $x1011 $x1151 $x1277 $x937 $x1423 (and $x2121 (and (or $x1037 $x1411) (and $x1272 $x1674))))))))))))))))))))))))))))))))))))))))))))))))))))))))))))))))))))))))))))))))))))))))))))))))))))))))))))))))))))))
 )
 )
 )
 )
 )
 )
 )
 )
 )
 )
 )
 )
(check-sat)
